p cnf 552 1237
1 -2 0
2 -1 0
3 4 0
5 4 0
-3 -5 -4 0
-6 4 -7 0
6 -4 -7 0
7 -4 -6 0
6 4 7 0
-7 0
8 9 0
10 9 0
-8 -10 -9 0
-5 9 -11 0
5 -9 -11 0
11 -9 -5 0
5 9 11 0
-11 0
10 12 0
13 12 0
-10 -13 -12 0
-8 12 -14 0
8 -12 -14 0
14 -12 -8 0
8 12 14 0
-14 0
15 16 0
17 16 0
-15 -17 -16 0
-18 16 -19 0
18 -16 -19 0
19 -16 -18 0
18 16 19 0
-19 0
6 20 0
21 20 0
-6 -21 -20 0
-17 20 -22 0
17 -20 -22 0
22 -20 -17 0
17 20 22 0
-22 0
23 24 0
25 24 0
-23 -25 -24 0
-26 24 -27 0
26 -24 -27 0
27 -24 -26 0
26 24 27 0
-27 0
28 29 0
30 29 0
-28 -30 -29 0
-25 29 -31 0
25 -29 -31 0
31 -29 -25 0
25 29 31 0
-31 0
32 33 0
34 33 0
-32 -34 -33 0
-30 33 -35 0
30 -33 -35 0
35 -33 -30 0
30 33 35 0
-35 0
36 37 0
38 37 0
-36 -38 -37 0
-34 37 -39 0
34 -37 -39 0
39 -37 -34 0
34 37 39 0
-39 0
40 41 0
42 41 0
-40 -42 -41 0
-36 41 -43 0
36 -41 -43 0
43 -41 -36 0
36 41 43 0
-43 0
32 44 0
38 44 0
42 44 0
45 44 0
-46 0
-40 44 -47 0
40 -44 -47 0
47 -44 -40 0
40 44 47 0
-47 0
48 49 0
50 49 0
-48 -50 -49 0
-51 49 -52 0
51 -49 -52 0
52 -49 -51 0
51 49 52 0
-52 0
53 54 0
55 54 0
-53 -55 -54 0
-50 54 -56 0
50 -54 -56 0
56 -54 -50 0
50 54 56 0
-56 0
57 58 0
59 58 0
-57 -59 -58 0
-55 58 -60 0
55 -58 -60 0
60 -58 -55 0
55 58 60 0
-60 0
61 62 0
63 62 0
-61 -63 -62 0
-59 62 -64 0
59 -62 -64 0
64 -62 -59 0
59 62 64 0
-64 0
65 66 0
67 66 0
-65 -67 -66 0
-63 66 -68 0
63 -66 -68 0
68 -66 -63 0
63 66 68 0
-68 0
57 69 0
61 69 0
65 69 0
70 69 0
-71 0
-67 69 -72 0
67 -69 -72 0
72 -69 -67 0
67 69 72 0
-72 0
73 74 0
75 74 0
-73 -75 -74 0
-76 74 -77 0
76 -74 -77 0
77 -74 -76 0
76 74 77 0
-77 0
78 79 0
80 79 0
-78 -80 -79 0
-73 79 -81 0
73 -79 -81 0
81 -79 -73 0
73 79 81 0
-81 0
1 82 0
83 82 0
-1 -83 -82 0
-80 82 -84 0
80 -82 -84 0
84 -82 -80 0
80 82 84 0
-84 0
85 86 0
87 86 0
-85 -87 -86 0
-88 86 -89 0
88 -86 -89 0
89 -86 -88 0
88 86 89 0
-89 0
90 91 0
92 91 0
-90 -92 -91 0
-87 91 -93 0
87 -91 -93 0
93 -91 -87 0
87 91 93 0
-93 0
94 95 0
96 95 0
-94 -96 -95 0
-92 95 -97 0
92 -95 -97 0
97 -95 -92 0
92 95 97 0
-97 0
98 99 0
100 99 0
-98 -100 -99 0
-96 99 -101 0
96 -99 -101 0
101 -99 -96 0
96 99 101 0
-101 0
102 103 0
104 103 0
-102 -104 -103 0
-98 103 -105 0
98 -103 -105 0
105 -103 -98 0
98 103 105 0
-105 0
100 106 0
102 106 0
107 106 0
-100 -102 -107 -106 0
-104 106 -108 0
104 -106 -108 0
108 -106 -104 0
104 106 108 0
-108 0
109 110 0
111 110 0
-109 -111 -110 0
-112 110 -113 0
112 -110 -113 0
113 -110 -112 0
112 110 113 0
-113 0
73 114 0
115 114 0
-73 -115 -114 0
-111 114 -116 0
111 -114 -116 0
116 -114 -111 0
111 114 116 0
-116 0
117 118 0
119 118 0
-117 -119 -118 0
-120 118 -121 0
120 -118 -121 0
121 -118 -120 0
120 118 121 0
-121 0
92 122 0
123 122 0
-92 -123 -122 0
-119 122 -124 0
119 -122 -124 0
124 -122 -119 0
119 122 124 0
-124 0
125 126 0
127 126 0
-125 -127 -126 0
-128 126 -129 0
128 -126 -129 0
129 -126 -128 0
128 126 129 0
-129 0
130 131 0
132 131 0
-130 -132 -131 0
-127 131 -133 0
127 -131 -133 0
133 -131 -127 0
127 131 133 0
-133 0
134 135 0
136 135 0
-134 -136 -135 0
-132 135 -137 0
132 -135 -137 0
137 -135 -132 0
132 135 137 0
-137 0
59 138 0
139 138 0
-59 -139 -138 0
-136 138 -140 0
136 -138 -140 0
140 -138 -136 0
136 138 140 0
-140 0
141 142 0
143 142 0
-141 -143 -142 0
-144 142 -145 0
144 -142 -145 0
145 -142 -144 0
144 142 145 0
-145 0
146 147 0
148 147 0
-146 -148 -147 0
-141 147 -149 0
141 -147 -149 0
149 -147 -141 0
141 147 149 0
-149 0
8 150 0
151 150 0
-8 -151 -150 0
-148 150 -152 0
148 -150 -152 0
152 -150 -148 0
148 150 152 0
-152 0
153 154 0
155 154 0
-153 -155 -154 0
-156 154 -157 0
156 -154 -157 0
157 -154 -156 0
156 154 157 0
-157 0
104 158 0
159 158 0
-104 -159 -158 0
-155 158 -160 0
155 -158 -160 0
160 -158 -155 0
155 158 160 0
-160 0
17 161 0
162 161 0
-17 -162 -161 0
-163 161 -164 0
163 -161 -164 0
164 -161 -163 0
163 161 164 0
-164 0
165 166 0
167 166 0
-165 -167 -166 0
-168 166 -169 0
168 -166 -169 0
169 -166 -168 0
168 166 169 0
-169 0
170 171 0
172 171 0
-170 -172 -171 0
-167 171 -173 0
167 -171 -173 0
173 -171 -167 0
167 171 173 0
-173 0
174 175 0
176 175 0
-174 -176 -175 0
-172 175 -177 0
172 -175 -177 0
177 -175 -172 0
172 175 177 0
-177 0
178 179 0
180 179 0
-178 -180 -179 0
-176 179 -181 0
176 -179 -181 0
181 -179 -176 0
176 179 181 0
-181 0
182 183 0
184 183 0
-182 -184 -183 0
-180 183 -185 0
180 -183 -185 0
185 -183 -180 0
180 183 185 0
-185 0
186 187 0
188 187 0
-186 -188 -187 0
-184 187 -189 0
184 -187 -189 0
189 -187 -184 0
184 187 189 0
-189 0
182 190 0
186 190 0
191 190 0
-182 -186 -191 -190 0
-188 190 -192 0
188 -190 -192 0
192 -190 -188 0
188 190 192 0
-192 0
193 194 0
195 194 0
-193 -195 -194 0
-196 194 -197 0
196 -194 -197 0
197 -194 -196 0
196 194 197 0
-197 0
198 199 0
200 199 0
-198 -200 -199 0
-195 199 -201 0
195 -199 -201 0
201 -199 -195 0
195 199 201 0
-201 0
202 203 0
204 203 0
-202 -204 -203 0
-200 203 -205 0
200 -203 -205 0
205 -203 -200 0
200 203 205 0
-205 0
40 206 0
207 206 0
-40 -207 -206 0
-204 206 -208 0
204 -206 -208 0
208 -206 -204 0
204 206 208 0
-208 0
209 210 0
211 210 0
-209 -211 -210 0
-212 210 -213 0
212 -210 -213 0
213 -210 -212 0
212 210 213 0
-213 0
34 214 0
215 214 0
-34 -215 -214 0
-211 214 -216 0
211 -214 -216 0
216 -214 -211 0
211 214 216 0
-216 0
217 218 0
219 218 0
-217 -219 -218 0
-220 218 -221 0
220 -218 -221 0
221 -218 -220 0
220 218 221 0
-221 0
222 223 0
224 223 0
-222 -224 -223 0
-219 223 -225 0
219 -223 -225 0
225 -223 -219 0
219 223 225 0
-225 0
98 226 0
227 226 0
-98 -227 -226 0
-224 226 -228 0
224 -226 -228 0
228 -226 -224 0
224 226 228 0
-228 0
229 230 0
231 230 0
-229 -231 -230 0
-232 230 -233 0
232 -230 -233 0
233 -230 -232 0
232 230 233 0
-233 0
234 235 0
236 235 0
-234 -236 -235 0
-229 235 -237 0
229 -235 -237 0
237 -235 -229 0
229 235 237 0
-237 0
238 239 0
240 239 0
-238 -240 -239 0
-234 239 -241 0
234 -239 -241 0
241 -239 -234 0
234 239 241 0
-241 0
240 242 0
243 242 0
-240 -243 -242 0
-238 242 -244 0
238 -242 -244 0
244 -242 -238 0
238 242 244 0
-244 0
245 246 0
247 246 0
-245 -247 -246 0
-248 246 -249 0
248 -246 -249 0
249 -246 -248 0
248 246 249 0
-249 0
250 251 0
252 251 0
-250 -252 -251 0
-247 251 -253 0
247 -251 -253 0
253 -251 -247 0
247 251 253 0
-253 0
254 255 0
256 255 0
-254 -256 -255 0
-252 255 -257 0
252 -255 -257 0
257 -255 -252 0
252 255 257 0
-257 0
8 258 0
259 258 0
-8 -259 -258 0
-256 258 -260 0
256 -258 -260 0
260 -258 -256 0
256 258 260 0
-260 0
261 262 0
263 262 0
-261 -263 -262 0
-264 262 -265 0
264 -262 -265 0
265 -262 -264 0
264 262 265 0
-265 0
266 267 0
268 267 0
-266 -268 -267 0
-263 267 -269 0
263 -267 -269 0
269 -267 -263 0
263 267 269 0
-269 0
155 270 0
271 270 0
-155 -271 -270 0
-268 270 -272 0
268 -270 -272 0
272 -270 -268 0
268 270 272 0
-272 0
188 273 0
274 273 0
-188 -274 -273 0
-275 273 -276 0
275 -273 -276 0
276 -273 -275 0
275 273 276 0
-276 0
277 278 0
279 278 0
-277 -279 -278 0
-280 278 -281 0
280 -278 -281 0
281 -278 -280 0
280 278 281 0
-281 0
282 283 0
284 283 0
-282 -284 -283 0
-279 283 -285 0
279 -283 -285 0
285 -283 -279 0
279 283 285 0
-285 0
286 287 0
288 287 0
-286 -288 -287 0
-284 287 -289 0
284 -287 -289 0
289 -287 -284 0
284 287 289 0
-289 0
184 290 0
291 290 0
-184 -291 -290 0
-288 290 -292 0
288 -290 -292 0
292 -290 -288 0
288 290 292 0
-292 0
293 294 0
295 294 0
-293 -295 -294 0
-296 294 -297 0
296 -294 -297 0
297 -294 -296 0
296 294 297 0
-297 0
229 298 0
299 298 0
-229 -299 -298 0
-295 298 -300 0
295 -298 -300 0
300 -298 -295 0
295 298 300 0
-300 0
26 301 0
302 301 0
-26 -302 -301 0
-303 301 -304 0
303 -301 -304 0
304 -301 -303 0
303 301 304 0
-304 0
305 306 0
307 306 0
-305 -307 -306 0
-308 306 -309 0
308 -306 -309 0
309 -306 -308 0
308 306 309 0
-309 0
310 311 0
312 311 0
-310 -312 -311 0
-307 311 -313 0
307 -311 -313 0
313 -311 -307 0
307 311 313 0
-313 0
234 314 0
315 314 0
-234 -315 -314 0
-312 314 -316 0
312 -314 -316 0
316 -314 -312 0
312 314 316 0
-316 0
317 318 0
319 318 0
-317 -319 -318 0
-320 318 -321 0
320 -318 -321 0
321 -318 -320 0
320 318 321 0
-321 0
322 323 0
324 323 0
-322 -324 -323 0
-319 323 -325 0
319 -323 -325 0
325 -323 -319 0
319 323 325 0
-325 0
247 326 0
327 326 0
-247 -327 -326 0
-324 326 -328 0
324 -326 -328 0
328 -326 -324 0
324 326 328 0
-328 0
329 330 0
331 330 0
-329 -331 -330 0
-332 330 -333 0
332 -330 -333 0
333 -330 -332 0
332 330 333 0
-333 0
334 335 0
336 335 0
-334 -336 -335 0
-329 335 -337 0
329 -335 -337 0
337 -335 -329 0
329 335 337 0
-337 0
36 338 0
339 338 0
-36 -339 -338 0
-336 338 -340 0
336 -338 -340 0
340 -338 -336 0
336 338 340 0
-340 0
341 342 0
343 342 0
-341 -343 -342 0
-344 342 -345 0
344 -342 -345 0
345 -342 -344 0
344 342 345 0
-345 0
346 347 0
348 347 0
-346 -348 -347 0
-341 347 -349 0
341 -347 -349 0
349 -347 -341 0
341 347 349 0
-349 0
148 350 0
351 350 0
-148 -351 -350 0
-348 350 -352 0
348 -350 -352 0
352 -350 -348 0
348 350 352 0
-352 0
232 353 0
354 353 0
-232 -354 -353 0
-355 353 -356 0
355 -353 -356 0
356 -353 -355 0
355 353 356 0
-356 0
357 358 0
359 358 0
-357 -359 -358 0
-360 358 -361 0
360 -358 -361 0
361 -358 -360 0
360 358 361 0
-361 0
362 363 0
364 363 0
-362 -364 -363 0
-359 363 -365 0
359 -363 -365 0
365 -363 -359 0
359 363 365 0
-365 0
6 366 0
367 366 0
-6 -367 -366 0
-364 366 -368 0
364 -366 -368 0
368 -366 -364 0
364 366 368 0
-368 0
369 -2 -370 0
2 -369 -370 0
-369 -2 370 0
2 369 370 0
-370 0
371 -3 -372 0
3 -371 -372 0
-371 -3 372 0
3 371 372 0
-372 0
373 -10 -374 0
10 -373 -374 0
-373 -10 374 0
10 373 374 0
-374 0
375 -13 -376 0
13 -375 -376 0
-375 -13 376 0
13 375 376 0
-376 0
377 -15 -378 0
15 -377 -378 0
-377 -15 378 0
15 377 378 0
-378 0
379 -21 -380 0
21 -379 -380 0
-379 -21 380 0
21 379 380 0
-380 0
381 -23 -382 0
23 -381 -382 0
-381 -23 382 0
23 381 382 0
-382 0
383 -28 -384 0
28 -383 -384 0
-383 -28 384 0
28 383 384 0
-384 0
385 -32 -386 0
32 -385 -386 0
-385 -32 386 0
32 385 386 0
-386 0
387 -38 -388 0
38 -387 -388 0
-387 -38 388 0
38 387 388 0
-388 0
389 -42 -390 0
42 -389 -390 0
-389 -42 390 0
42 389 390 0
-390 0
391 -45 -392 0
45 -391 -392 0
-391 -45 392 0
45 391 392 0
-392 0
393 -48 -394 0
48 -393 -394 0
-393 -48 394 0
48 393 394 0
-394 0
395 -53 -396 0
53 -395 -396 0
-395 -53 396 0
53 395 396 0
-396 0
397 -57 -398 0
57 -397 -398 0
-397 -57 398 0
57 397 398 0
-398 0
399 -61 -400 0
61 -399 -400 0
-399 -61 400 0
61 399 400 0
-400 0
401 -65 -402 0
65 -401 -402 0
-401 -65 402 0
65 401 402 0
-402 0
403 -70 -404 0
70 -403 -404 0
-403 -70 404 0
70 403 404 0
-404 0
405 -75 -406 0
75 -405 -406 0
-405 -75 406 0
75 405 406 0
-406 0
407 -78 -408 0
78 -407 -408 0
-407 -78 408 0
78 407 408 0
-408 0
409 -83 -410 0
83 -409 -410 0
-409 -83 410 0
83 409 410 0
-410 0
411 -85 -412 0
85 -411 -412 0
-411 -85 412 0
85 411 412 0
-412 0
413 -90 -414 0
90 -413 -414 0
-413 -90 414 0
90 413 414 0
-414 0
415 -94 -416 0
94 -415 -416 0
-415 -94 416 0
94 415 416 0
-416 0
417 -100 -418 0
100 -417 -418 0
-417 -100 418 0
100 417 418 0
-418 0
419 -102 -420 0
102 -419 -420 0
-419 -102 420 0
102 419 420 0
-420 0
421 -107 -422 0
107 -421 -422 0
-421 -107 422 0
107 421 422 0
-422 0
423 -109 -424 0
109 -423 -424 0
-423 -109 424 0
109 423 424 0
-424 0
425 -115 -426 0
115 -425 -426 0
-425 -115 426 0
115 425 426 0
-426 0
427 -117 -428 0
117 -427 -428 0
-427 -117 428 0
117 427 428 0
-428 0
429 -123 -430 0
123 -429 -430 0
-429 -123 430 0
123 429 430 0
-430 0
431 -125 -432 0
125 -431 -432 0
-431 -125 432 0
125 431 432 0
-432 0
433 -130 -434 0
130 -433 -434 0
-433 -130 434 0
130 433 434 0
-434 0
435 -134 -436 0
134 -435 -436 0
-435 -134 436 0
134 435 436 0
-436 0
437 -139 -438 0
139 -437 -438 0
-437 -139 438 0
139 437 438 0
-438 0
439 -143 -440 0
143 -439 -440 0
-439 -143 440 0
143 439 440 0
-440 0
441 -146 -442 0
146 -441 -442 0
-441 -146 442 0
146 441 442 0
-442 0
443 -151 -444 0
151 -443 -444 0
-443 -151 444 0
151 443 444 0
-444 0
445 -153 -446 0
153 -445 -446 0
-445 -153 446 0
153 445 446 0
-446 0
447 -159 -448 0
159 -447 -448 0
-447 -159 448 0
159 447 448 0
-448 0
449 -162 -450 0
162 -449 -450 0
-449 -162 450 0
162 449 450 0
-450 0
451 -165 -452 0
165 -451 -452 0
-451 -165 452 0
165 451 452 0
-452 0
453 -170 -454 0
170 -453 -454 0
-453 -170 454 0
170 453 454 0
-454 0
455 -174 -456 0
174 -455 -456 0
-455 -174 456 0
174 455 456 0
-456 0
457 -178 -458 0
178 -457 -458 0
-457 -178 458 0
178 457 458 0
-458 0
459 -182 -460 0
182 -459 -460 0
-459 -182 460 0
182 459 460 0
-460 0
461 -186 -462 0
186 -461 -462 0
-461 -186 462 0
186 461 462 0
-462 0
463 -191 -464 0
191 -463 -464 0
-463 -191 464 0
191 463 464 0
-464 0
465 -193 -466 0
193 -465 -466 0
-465 -193 466 0
193 465 466 0
-466 0
467 -198 -468 0
198 -467 -468 0
-467 -198 468 0
198 467 468 0
-468 0
469 -202 -470 0
202 -469 -470 0
-469 -202 470 0
202 469 470 0
-470 0
471 -207 -472 0
207 -471 -472 0
-471 -207 472 0
207 471 472 0
-472 0
473 -209 -474 0
209 -473 -474 0
-473 -209 474 0
209 473 474 0
-474 0
475 -215 -476 0
215 -475 -476 0
-475 -215 476 0
215 475 476 0
-476 0
477 -217 -478 0
217 -477 -478 0
-477 -217 478 0
217 477 478 0
-478 0
479 -222 -480 0
222 -479 -480 0
-479 -222 480 0
222 479 480 0
-480 0
481 -227 -482 0
227 -481 -482 0
-481 -227 482 0
227 481 482 0
-482 0
483 -231 -484 0
231 -483 -484 0
-483 -231 484 0
231 483 484 0
-484 0
485 -236 -486 0
236 -485 -486 0
-485 -236 486 0
236 485 486 0
-486 0
487 -240 -488 0
240 -487 -488 0
-487 -240 488 0
240 487 488 0
-488 0
489 -243 -490 0
243 -489 -490 0
-489 -243 490 0
243 489 490 0
-490 0
491 -245 -492 0
245 -491 -492 0
-491 -245 492 0
245 491 492 0
-492 0
493 -250 -494 0
250 -493 -494 0
-493 -250 494 0
250 493 494 0
-494 0
495 -254 -496 0
254 -495 -496 0
-495 -254 496 0
254 495 496 0
-496 0
497 -259 -498 0
259 -497 -498 0
-497 -259 498 0
259 497 498 0
-498 0
499 -261 -500 0
261 -499 -500 0
-499 -261 500 0
261 499 500 0
-500 0
501 -266 -502 0
266 -501 -502 0
-501 -266 502 0
266 501 502 0
-502 0
503 -271 -504 0
271 -503 -504 0
-503 -271 504 0
271 503 504 0
-504 0
505 -274 -506 0
274 -505 -506 0
-505 -274 506 0
274 505 506 0
-506 0
507 -277 -508 0
277 -507 -508 0
-507 -277 508 0
277 507 508 0
-508 0
509 -282 -510 0
282 -509 -510 0
-509 -282 510 0
282 509 510 0
-510 0
511 -286 -512 0
286 -511 -512 0
-511 -286 512 0
286 511 512 0
-512 0
513 -291 -514 0
291 -513 -514 0
-513 -291 514 0
291 513 514 0
-514 0
515 -293 -516 0
293 -515 -516 0
-515 -293 516 0
293 515 516 0
-516 0
517 -299 -518 0
299 -517 -518 0
-517 -299 518 0
299 517 518 0
-518 0
519 -302 -520 0
302 -519 -520 0
-519 -302 520 0
302 519 520 0
-520 0
521 -305 -522 0
305 -521 -522 0
-521 -305 522 0
305 521 522 0
-522 0
523 -310 -524 0
310 -523 -524 0
-523 -310 524 0
310 523 524 0
-524 0
525 -315 -526 0
315 -525 -526 0
-525 -315 526 0
315 525 526 0
-526 0
527 -317 -528 0
317 -527 -528 0
-527 -317 528 0
317 527 528 0
-528 0
529 -322 -530 0
322 -529 -530 0
-529 -322 530 0
322 529 530 0
-530 0
531 -327 -532 0
327 -531 -532 0
-531 -327 532 0
327 531 532 0
-532 0
533 -331 -534 0
331 -533 -534 0
-533 -331 534 0
331 533 534 0
-534 0
535 -334 -536 0
334 -535 -536 0
-535 -334 536 0
334 535 536 0
-536 0
537 -339 -538 0
339 -537 -538 0
-537 -339 538 0
339 537 538 0
-538 0
539 -343 -540 0
343 -539 -540 0
-539 -343 540 0
343 539 540 0
-540 0
541 -346 -542 0
346 -541 -542 0
-541 -346 542 0
346 541 542 0
-542 0
543 -351 -544 0
351 -543 -544 0
-543 -351 544 0
351 543 544 0
-544 0
545 -354 -546 0
354 -545 -546 0
-545 -354 546 0
354 545 546 0
-546 0
547 -357 -548 0
357 -547 -548 0
-547 -357 548 0
357 547 548 0
-548 0
549 -362 -550 0
362 -549 -550 0
-549 -362 550 0
362 549 550 0
-550 0
551 -367 -552 0
367 -551 -552 0
-551 -367 552 0
367 551 552 0
-552 0
1 0
-6 0
-8 0
-18 0
-26 0
-36 0
-40 0
-51 0
-76 0
-73 0
-88 0
-98 0
-112 0
-120 0
-128 0
-144 0
-141 0
-156 0
-163 0
-168 0
-196 0
-212 0
-220 0
-232 0
-229 0
-234 0
-238 0
-248 0
-264 0
-275 0
-280 0
-296 0
-303 0
-308 0
-320 0
-332 0
-329 0
-344 0
-341 0
-355 0
-360 0
